Maximize

5 x_0 + 4 x_1 + 3 x_2 + 4 x_3 + 5 x_4 + 2 x_5 + 3 x_6


Subject To

a0: x_0 + x_1 + x_2 + x_3 + x_4 + x_5 + x_6 > 0
b0: x_0 + x_1 - x_2 - x_3 >= 0
b1: x_0 + x_1 - x_4 >= 0
b2: x_0 + x_1 - x_5 - x_6 >= 0
c0: 20 x_1 + 25 x_1 + 22 x_1 + 20 x_1 - 20 x_1 - 20 x_1 - 20 x_1 - 20 x_1 >= 0
d0: 90 x_0 + 110 x_1 + 80 x_2 + 70 x_3 + 120 x_4 + 100 x_5 + 90 x_6 <= 500




Binary

x_0 x_1 x_2 x_3 x_4 x_5 x_6

 


End
